
  12    4
  10   10   10   10

   0   0   0   0   0   2 2 4 
   1  10  10  10  10   2 6 3 
   8  10  10  10  10   2 8 5 
   5  10  10  10  10   2 6 5 
   8  10  10  10  10   2 10 7 
   7  10  10  10  10   3 11 10 9 
   2  10  10  10  10   2 11 9 
  10  10  10  10  10   2 10 9 
   8  10  10  10  10   1 12
   1  10  10  10  10   1 12
   8  10  10  10  10   1 12
   0   0   0   0   0   0 
